15
616 844 943  174
558 819 699  694
418 693 547  251
860 571 753  177
734 659 507  309
820 621 827  191
730 629 809  348
487 402 804  856
988 475 504  141
695 486 975  586
572 654 871  389
466 798 785  838
888 678 493  690
789 904 548  844
774 636 519  751
10
735 700 596  242 16
555 121 405  221 273
418 47 763  142 147
528 54 8  153 140
64 319 721  267 80
250 210 478  252 274
207 634 591  161 121
431 691 542  160 31
353 153 135  29 250
510 6 242  64 228
